243/surrogate_problem/sol/surrogate2_31.sol
# Solution for model problem_
# Objective value = 2.5515624520476520e+05
x(0_0) 0
x(0_1) 0
x(0_2) 0
x(0_3) 0
x(0_4) 1
x(0_5) 0
x(0_6) 0
x(0_7) 0
x(0_8) 0
x(0_9) 0
x(0_10) 0
x(1_11) 0
x(1_12) 0
x(1_13) 0
x(1_14) 0
x(1_15) 0
x(1_16) 0
x(1_17) 0
x(1_18) 0
x(1_19) 0
x(1_20) 0
x(1_21) 0
x(1_22) 0
x(1_23) 0
x(1_24) 0
x(1_25) 0
x(1_26) 1
x(2_27) 0
x(2_28) 0
x(2_29) 0
x(2_30) 0
x(2_31) 0
x(2_32) 0
x(2_33) 0
x(2_34) 0
x(2_35) 0
x(2_36) 0
x(2_37) 0
x(2_38) 0
x(2_39) 0
x(2_40) 0
x(2_41) 0
x(2_42) 0
x(2_43) 1
x(2_44) 0
x(2_45) 0
x(2_46) 0
x(3_47) 0
x(3_48) 0
x(3_49) 0
x(3_50) 0
x(3_51) 0
x(3_52) 0
x(3_53) 0
x(3_54) 0
x(3_55) 0
x(3_56) 1
x(3_57) 0
x(3_58) 0
x(3_59) 0
x(3_60) 0
x(3_61) 0
x(4_62) 1
x(4_63) 0
x(4_64) 0
x(4_65) 0
x(4_66) 0
x(4_67) 0
x(4_68) 0
x(4_69) 0
x(4_70) 0
x(4_71) 0
x(4_72) 0
x(4_73) 0
x(4_74) 0
x(4_75) 0
x(4_76) 0
x(4_77) 0
x(4_78) 0
x(4_79) 0
x(4_80) 0
x(4_81) 0
x(5_82) 0
x(5_83) 0
x(5_84) 0
x(5_85) 0
x(5_86) 1
x(5_87) 0
x(5_88) 0
x(5_89) 0
x(5_90) 0
x(5_91) 0
x(5_92) 0
x(5_93) 0
x(5_94) 0
x(5_95) 0
x(5_96) 0
x(5_97) 0
x(6_98) 0
x(6_99) 0
x(6_100) 0
x(6_101) 0
x(6_102) 0
x(6_103) 0
x(6_104) 0
x(6_105) 0
x(6_106) 1
x(6_107) 0
x(6_108) 0
x(6_109) 0
x(6_110) 0
x(6_111) 0
x(6_112) 0
x(7_113) 0
x(7_114) 0
x(7_115) 0
x(7_116) 0
x(7_117) 0
x(7_118) 0
x(7_119) 0
x(7_120) 0
x(7_121) 0
x(7_122) 1
x(7_123) 0
x(8_124) 0
x(8_125) 0
x(8_126) 0
x(8_127) 0
x(8_128) 0
x(8_129) 0
x(8_130) 1
x(8_131) 0
x(8_132) 0
x(8_133) 0
x(8_134) 0
x(8_135) 0
x(8_136) 0
x(8_137) 0
x(8_138) 0
x(9_139) 1
x(9_140) 0
x(9_141) 0
x(9_142) 0
x(9_143) 0
x(9_144) 0
x(9_145) 0
x(9_146) 0
x(9_147) 0
x(9_148) 0
x(9_149) 0
x(9_150) 0
x(9_151) 0
x(9_152) 0
x(10_153) 0
x(10_154) 0
x(10_155) 0
x(10_156) 0
x(10_157) 0
x(10_158) 0
x(10_159) 0
x(10_160) 0
x(10_161) 1
x(10_162) 0
x(10_163) 0
x(10_164) 0
x(10_165) 0
x(10_166) 0
x(10_167) 0
x(10_168) 0
x(10_169) 0
x(10_170) 0
x(10_171) 0
x(11_172) 0
x(11_173) 0
x(11_174) 0
x(11_175) 0
x(11_176) 1
x(11_177) 0
x(11_178) 0
x(11_179) 0
x(11_180) 0
x(11_181) 0
x(11_182) 0
x(11_183) 0
x(11_184) 0
x(11_185) 0
x(11_186) 0
x(11_187) 0
x(12_188) 0
x(12_189) 0
x(12_190) 0
x(12_191) 0
x(12_192) 0
x(12_193) 0
x(12_194) 0
x(12_195) 0
x(12_196) 0
x(12_197) 1
x(12_198) 0
x(12_199) 0
x(12_200) 0
x(13_201) 0
x(13_202) 0
x(13_203) 0
x(13_204) 0
x(13_205) 0
x(13_206) 0
x(13_207) 0
x(13_208) 0
x(13_209) 0
x(13_210) 0
x(13_211) 0
x(13_212) 0
x(13_213) 0
x(13_214) 0
x(13_215) 0
x(13_216) 1
x(13_217) 0
x(13_218) 0
x(14_219) 0
x(14_220) 0
x(14_221) 0
x(14_222) 0
x(14_223) 0
x(14_224) 0
x(14_225) 0
x(14_226) 1
x(14_227) 0
x(14_228) 0
x(14_229) 0
x(14_230) 0
x(14_231) 0
x(15_232) 0
x(15_233) 0
x(15_234) 0
x(15_235) 0
x(15_236) 0
x(15_237) 0
x(15_238) 1
x(15_239) 0
x(15_240) 0
x(15_241) 0
x(15_242) 0
x(16_243) 0
x(16_244) 0
x(16_245) 1
x(16_246) 0
x(16_247) 0
x(16_248) 0
x(16_249) 0
x(16_250) 0
x(16_251) 0
x(16_252) 0
x(16_253) 0
x(16_254) 0
x(16_255) 0
x(16_256) 0
x(16_257) 0
x(16_258) 0
x(16_259) 0
x(16_260) 0
x(17_261) 0
x(17_262) 0
x(17_263) 0
x(17_264) 0
x(17_265) 0
x(17_266) 0
x(17_267) 0
x(17_268) 0
x(17_269) 0
x(17_270) 0
x(17_271) 0
x(17_272) 0
x(17_273) 1
x(18_274) 0
x(18_275) 0
x(18_276) 0
x(18_277) 0
x(18_278) 0
x(18_279) 1
x(18_280) 0
x(18_281) 0
x(18_282) 0
x(18_283) 0
x(19_284) 0
x(19_285) 0
x(19_286) 0
x(19_287) 0
x(19_288) 0
x(19_289) 0
x(19_290) 0
x(19_291) 1
x(19_292) 0
x(19_293) 0
x(19_294) 0
x(19_295) 0
x(20_296) 1
x(20_297) 0
x(20_298) 0
x(20_299) 0
x(20_300) 0
x(20_301) 0
x(20_302) 0
x(20_303) 0
x(20_304) 0
x(20_305) 0
x(20_306) 0
x(21_307) 0
x(21_308) 0
x(21_309) 1
x(21_310) 0
x(21_311) 0
x(21_312) 0
x(21_313) 0
x(21_314) 0
x(21_315) 0
x(21_316) 0
x(21_317) 0
x(21_318) 0
x(21_319) 0
x(21_320) 0
x(21_321) 0
x(21_322) 0
x(22_323) 0
x(22_324) 0
x(22_325) 0
x(22_326) 0
x(22_327) 0
x(22_328) 0
x(22_329) 0
x(22_330) 0
x(22_331) 0
x(22_332) 0
x(22_333) 0
x(22_334) 0
x(22_335) 1
x(22_336) 0
x(22_337) 0
x(22_338) 0
x(22_339) 0
x(22_340) 0
x(23_341) 0
x(23_342) 0
x(23_343) 0
x(23_344) 0
x(23_345) 0
x(23_346) 0
x(23_347) 0
x(23_348) 0
x(23_349) 0
x(23_350) 1
x(23_351) 0
x(23_352) 0
x(23_353) 0
x(23_354) 0
x(23_355) 0
x(23_356) 0
x(24_357) 0
x(24_358) 0
x(24_359) 0
x(24_360) 0
x(24_361) 0
x(24_362) 0
x(24_363) 0
x(24_364) 0
x(24_365) 1
x(24_366) 0
x(24_367) 0
x(25_368) 0
x(25_369) 0
x(25_370) 0
x(25_371) 0
x(25_372) 1
x(25_373) 0
x(25_374) 0
x(25_375) 0
x(25_376) 0
x(25_377) 0
x(25_378) 0
x(25_379) 0
x(25_380) 0
x(25_381) 0
x(25_382) 0
x(25_383) 0
x(25_384) 0
x(25_385) 0
x(25_386) 0
x(25_387) 0
x(26_388) 0
x(26_389) 0
x(26_390) 0
x(26_391) 0
x(26_392) 0
x(26_393) 0
x(26_394) 0
x(26_395) 0
x(26_396) 0
x(26_397) 1
x(26_398) 0
x(26_399) 0
x(26_400) 0
x(26_401) 0
x(26_402) 0
x(26_403) 0
x(26_404) 0
x(26_405) 0
x(27_406) 0
x(27_407) 0
x(27_408) 0
x(27_409) 0
x(27_410) 0
x(27_411) 0
x(27_412) 0
x(27_413) 0
x(27_414) 0
x(27_415) 0
x(27_416) 0
x(27_417) 0
x(27_418) 0
x(27_419) 0
x(27_420) 0
x(27_421) 0
x(27_422) 0
x(27_423) 0
x(27_424) 0
x(27_425) 1
x(28_426) 0
x(28_427) 0
x(28_428) 1
x(28_429) 0
x(28_430) 0
x(28_431) 0
x(28_432) 0
x(28_433) 0
x(28_434) 0
x(28_435) 0
x(28_436) 0
x(28_437) 0
x(28_438) 0
x(28_439) 0
x(28_440) 0
x(28_441) 0
x(28_442) 0
x(28_443) 0
x(28_444) 0
x(29_445) 0
x(29_446) 0
x(29_447) 0
x(29_448) 0
x(29_449) 0
x(29_450) 0
x(29_451) 0
x(29_452) 0
x(29_453) 0
x(29_454) 0
x(29_455) 0
x(29_456) 1
x(29_457) 0
x(29_458) 0
x(29_459) 0
x(29_460) 0
x(29_461) 0
x(29_462) 0
x(30_463) 0
x(30_464) 0
x(30_465) 0
x(30_466) 0
x(30_467) 0
x(30_468) 0
x(30_469) 1
x(30_470) 0
x(30_471) 0
x(30_472) 0
x(30_473) 0
x(31_474) 0
x(31_475) 0
x(31_476) 0
x(31_477) 0
x(31_478) 0
x(31_479) 0
x(31_480) 0
x(31_481) 0
x(31_482) 0
x(31_483) 0
x(31_484) 1
x(31_485) 0
x(31_486) 0
x(31_487) 0
x(31_488) 0
x(31_489) 0
x(31_490) 0
x(32_491) 0
x(32_492) 0
x(32_493) 0
x(32_494) 0
x(32_495) 0
x(32_496) 0
x(32_497) 0
x(32_498) 0
x(32_499) 0
x(32_500) 0
x(32_501) 0
x(32_502) 0
x(32_503) 1
x(33_504) 0
x(33_505) 0
x(33_506) 0
x(33_507) 0
x(33_508) 0
x(33_509) 0
x(33_510) 0
x(33_511) 0
x(33_512) 0
x(33_513) 0
x(33_514) 0
x(33_515) 1
x(34_516) 1
x(34_517) 0
x(34_518) 0
x(34_519) 0
x(34_520) 0
x(34_521) 0
x(34_522) 0
x(34_523) 0
x(34_524) 0
x(34_525) 0
x(34_526) 0
x(34_527) 0
x(34_528) 0
x(35_529) 0
x(35_530) 0
x(35_531) 0
x(35_532) 0
x(35_533) 0
x(35_534) 0
x(35_535) 0
x(35_536) 0
x(35_537) 0
x(35_538) 0
x(35_539) 1
x(35_540) 0
x(35_541) 0
x(35_542) 0
x(35_543) 0
x(35_544) 0
x(35_545) 0
x(35_546) 0
x(35_547) 0
x(35_548) 0
x(36_549) 0
x(36_550) 1
x(36_551) 0
x(36_552) 0
x(36_553) 0
x(36_554) 0
x(36_555) 0
x(36_556) 0
x(36_557) 0
x(36_558) 0
x(36_559) 0
x(36_560) 0
x(36_561) 0
x(36_562) 0
x(36_563) 0
x(36_564) 0
x(36_565) 0
x(36_566) 0
x(36_567) 0
x(37_568) 0
x(37_569) 0
x(37_570) 0
x(37_571) 0
x(37_572) 0
x(37_573) 0
x(37_574) 0
x(37_575) 0
x(37_576) 0
x(37_577) 0
x(37_578) 0
x(37_579) 0
x(37_580) 0
x(37_581) 0
x(37_582) 1
x(37_583) 0
x(37_584) 0
x(37_585) 0
x(38_586) 0
x(38_587) 0
x(38_588) 0
x(38_589) 0
x(38_590) 0
x(38_591) 0
x(38_592) 0
x(38_593) 0
x(38_594) 0
x(38_595) 1
x(39_596) 1
x(39_597) 0
x(39_598) 0
x(39_599) 0
x(39_600) 0
x(39_601) 0
x(39_602) 0
x(39_603) 0
x(39_604) 0
x(39_605) 0
x(40_606) 0
x(40_607) 0
x(40_608) 0
x(40_609) 0
x(40_610) 0
x(40_611) 0
x(40_612) 0
x(40_613) 0
x(40_614) 0
x(40_615) 0
x(40_616) 1
x(40_617) 0
x(40_618) 0
x(40_619) 0
x(40_620) 0
x(40_621) 0
x(40_622) 0
x(40_623) 0
x(40_624) 0
x(41_625) 0
x(41_626) 0
x(41_627) 0
x(41_628) 0
x(41_629) 0
x(41_630) 0
x(41_631) 0
x(41_632) 0
x(41_633) 0
x(41_634) 1
x(42_635) 0
x(42_636) 0
x(42_637) 0
x(42_638) 0
x(42_639) 0
x(42_640) 1
x(42_641) 0
x(42_642) 0
x(42_643) 0
x(42_644) 0
x(42_645) 0
x(42_646) 0
x(43_647) 0
x(43_648) 0
x(43_649) 0
x(43_650) 0
x(43_651) 0
x(43_652) 0
x(43_653) 0
x(43_654) 0
x(43_655) 0
x(43_656) 0
x(43_657) 0
x(43_658) 0
x(43_659) 0
x(43_660) 0
x(43_661) 0
x(43_662) 0
x(43_663) 1
x(43_664) 0
x(43_665) 0
x(44_666) 0
x(44_667) 0
x(44_668) 0
x(44_669) 0
x(44_670) 0
x(44_671) 0
x(44_672) 0
x(44_673) 0
x(44_674) 0
x(44_675) 0
x(44_676) 0
x(44_677) 0
x(44_678) 0
x(44_679) 0
x(44_680) 1
x(44_681) 0
x(44_682) 0
x(45_683) 0
x(45_684) 0
x(45_685) 0
x(45_686) 0
x(45_687) 0
x(45_688) 0
x(45_689) 0
x(45_690) 0
x(45_691) 0
x(45_692) 1
x(45_693) 0
x(45_694) 0
x(45_695) 0
x(46_696) 0
x(46_697) 0
x(46_698) 0
x(46_699) 0
x(46_700) 0
x(46_701) 0
x(46_702) 0
x(46_703) 0
x(46_704) 1
x(46_705) 0
x(46_706) 0
x(46_707) 0
x(46_708) 0
x(46_709) 0
x(46_710) 0
x(46_711) 0
x(46_712) 0
x(46_713) 0
x(47_714) 1
x(47_715) 0
x(47_716) 0
x(47_717) 0
x(47_718) 0
x(47_719) 0
x(47_720) 0
x(47_721) 0
x(47_722) 0
x(47_723) 0
x(47_724) 0
x(47_725) 0
x(47_726) 0
x(47_727) 0
x(47_728) 0
x(47_729) 0
x(47_730) 0
x(48_731) 0
x(48_732) 0
x(48_733) 0
x(48_734) 0
x(48_735) 0
x(48_736) 0
x(48_737) 0
x(48_738) 0
x(48_739) 0
x(48_740) 1
x(48_741) 0
x(48_742) 0
x(48_743) 0
x(48_744) 0
x(48_745) 0
x(48_746) 0
x(49_747) 0
x(49_748) 0
x(49_749) 0
x(49_750) 0
x(49_751) 0
x(49_752) 1
x(49_753) 0
x(49_754) 0
x(49_755) 0
x(49_756) 0
x(49_757) 0
x(49_758) 0
x(49_759) 0
x(49_760) 0
x(49_761) 0
x(50_762) 0
x(50_763) 0
x(50_764) 0
x(50_765) 0
x(50_766) 0
x(50_767) 1
x(50_768) 0
x(50_769) 0
x(50_770) 0
x(50_771) 0
x(50_772) 0
x(50_773) 0
x(50_774) 0
x(50_775) 0
x(50_776) 0
x(50_777) 0
x(51_778) 0
x(51_779) 0
x(51_780) 0
x(51_781) 0
x(51_782) 0
x(51_783) 0
x(51_784) 0
x(51_785) 0
x(51_786) 0
x(51_787) 0
x(51_788) 0
x(51_789) 0
x(51_790) 0
x(51_791) 0
x(51_792) 0
x(51_793) 1
x(51_794) 0
x(51_795) 0
x(51_796) 0
x(51_797) 0
x(52_798) 1
x(52_799) 0
x(52_800) 0
x(52_801) 0
x(52_802) 0
x(52_803) 0
x(52_804) 0
x(52_805) 0
x(52_806) 0
x(52_807) 0
x(52_808) 0
x(52_809) 0
x(52_810) 0
x(52_811) 0
x(52_812) 0
x(52_813) 0
x(52_814) 0
x(52_815) 0
x(52_816) 0
x(52_817) 0
x(53_818) 0
x(53_819) 0
x(53_820) 0
x(53_821) 0
x(53_822) 0
x(53_823) 1
x(53_824) 0
x(53_825) 0
x(53_826) 0
x(53_827) 0
x(53_828) 0
x(53_829) 0
x(53_830) 0
x(53_831) 0
x(53_832) 0
x(53_833) 0
x(53_834) 0
x(53_835) 0
x(53_836) 0
x(53_837) 0
x(54_838) 0
x(54_839) 0
x(54_840) 0
x(54_841) 0
x(54_842) 0
x(54_843) 1
x(54_844) 0
x(54_845) 0
x(54_846) 0
x(54_847) 0
x(54_848) 0
x(54_849) 0
x(54_850) 0
x(54_851) 0
x(54_852) 0
x(55_853) 0
x(55_854) 0
x(55_855) 0
x(55_856) 0
x(55_857) 0
x(55_858) 0
x(55_859) 0
x(55_860) 0
x(55_861) 0
x(55_862) 0
x(55_863) 0
x(55_864) 0
x(55_865) 0
x(55_866) 0
x(55_867) 0
x(55_868) 1
x(55_869) 0
x(56_870) 0
x(56_871) 0
x(56_872) 0
x(56_873) 0
x(56_874) 0
x(56_875) 0
x(56_876) 0
x(56_877) 0
x(56_878) 0
x(56_879) 0
x(56_880) 0
x(56_881) 1
x(57_882) 1
x(57_883) 0
x(57_884) 0
x(57_885) 0
x(57_886) 0
x(57_887) 0
x(57_888) 0
x(57_889) 0
x(57_890) 0
x(57_891) 0
x(57_892) 0
x(57_893) 0
x(57_894) 0
x(57_895) 0
x(57_896) 0
x(57_897) 0
x(57_898) 0
x(57_899) 0
x(57_900) 0
x(58_901) 0
x(58_902) 0
x(58_903) 0
x(58_904) 0
x(58_905) 0
x(58_906) 0
x(58_907) 0
x(58_908) 0
x(58_909) 0
x(58_910) 0
x(58_911) 0
x(58_912) 0
x(58_913) 0
x(58_914) 0
x(58_915) 0
x(58_916) 1
x(58_917) 0
x(58_918) 0
x(59_919) 1
x(59_920) 0
x(59_921) 0
x(59_922) 0
x(59_923) 0
x(59_924) 0
x(59_925) 0
x(59_926) 0
x(59_927) 0
x(59_928) 0
x(59_929) 0
x(59_930) 0
x(59_931) 0
x(59_932) 0
x(59_933) 0
x(59_934) 0
x(59_935) 0
x_1_0 3.1067168877460063e+02
s_1_0 0
z_1_0 0
x_1_1 3.1117183893453330e+02
s_1_1 0
z_1_1 0
x_1_2 3.1127238464041147e+02
s_1_2 0
z_1_2 0
x_1_3 3.1086913227848709e+02
s_1_3 0
z_1_3 0
x_1_4 3.1140315099433064e+02
s_1_4 0
z_1_4 0
x_1_5 3.0895589523389935e+02
s_1_5 0
z_1_5 0
x_1_6 0
s_1_6 8.3122691306925844e-01
z_1_6 1
x_1_7 3.0863175099994987e+02
s_1_7 0
z_1_7 0
x_1_8 0
s_1_8 1.3635712384493672e+00
z_1_8 1
x_1_9 3.0816720228362828e+02
s_1_9 0
z_1_9 0
x_1_10 3.0879512268118560e+02
s_1_10 0
z_1_10 0
x_1_11 0
s_1_11 8.6458547378424555e-01
z_1_11 1
x_1_12 0
s_1_12 8.9730862528085709e-01
z_1_12 1
x_1_13 3.0846058047376573e+02
s_1_13 0
z_1_13 0
x_1_14 3.0985421643650625e+02
s_1_14 0
z_1_14 0
x_1_15 3.0956508722971193e+02
s_1_15 0
z_1_15 0
x_1_16 3.0909465183393331e+02
s_1_16 0
z_1_16 0
x_1_17 3.1181690539419651e+02
s_1_17 0
z_1_17 0
x_1_18 3.1126665766723454e+02
s_1_18 0
z_1_18 0
x_1_19 0
s_1_19 1.1669984792679315e+00
z_1_19 1
x_1_20 0
s_1_20 1.1529434953117743e+00
z_1_20 1
x_1_21 3.1098178159771487e+02
s_1_21 0
z_1_21 0
x_1_22 0
s_1_22 0.886794070713222
z_1_22 1
x_1_23 0
s_1_23 1.0381652851938270e+00
z_1_23 1
x_1_24 0
s_1_24 8.1092179677216336e-01
z_1_24 1
x_1_25 3.1203908926807344e+02
s_1_25 0
z_1_25 0
x_1_26 3.1061204804852605e+02
s_1_26 0
z_1_26 0
x_1_27 3.1053419964853674e+02
s_1_27 0
z_1_27 0
x_1_28 3.0952007512794808e+02
s_1_28 0
z_1_28 0
x_1_29 3.1199738879408687e+02
s_1_29 0
z_1_29 0
x_1_30 3.1173839052766562e+02
s_1_30 0
z_1_30 0
x_1_31 3.1117686114530079e+02
s_1_31 0
z_1_31 0
x_1_32 3.1195762830274180e+02
s_1_32 0
z_1_32 0
x_1_33 3.0890084740705788e+02
s_1_33 0
z_1_33 0
x_1_34 3.0948219493404031e+02
s_1_34 0
z_1_34 0
x_1_35 3.1091439373604953e+02
s_1_35 0
z_1_35 0
x_1_36 0
s_1_36 1.2692960226122523e+00
z_1_36 1
x_1_37 3.1196301370486617e+02
s_1_37 0
z_1_37 0
x_1_38 3.1044656043499708e+02
s_1_38 0
z_1_38 0
x_1_39 3.1154472576081753e+02
s_1_39 0
z_1_39 0
x_1_40 0
s_1_40 1.0078720330784563e+00
z_1_40 1
x_1_41 3.1171505159791559e+02
s_1_41 0
z_1_41 0
x_1_42 3.1161545100063086e+02
s_1_42 0
z_1_42 0
x_1_43 3.1084019042644650e+02
s_1_43 0
z_1_43 0
x_1_44 3.0954574962588958e+02
s_1_44 0
z_1_44 0
x_1_45 0
s_1_45 6.0502031852229265e-01
z_1_45 1
x_1_46 0
s_1_46 5.8852146915160120e-01
z_1_46 1
x_1_47 3.0986252772808075e+02
s_1_47 0
z_1_47 0
x_1_48 3.1168883993849158e+02
s_1_48 0
z_1_48 0
x_1_49 3.1052417189255357e+02
s_1_49 0
z_1_49 0
x_1_50 3.1094335593096912e+02
s_1_50 0
z_1_50 0
x_1_51 0
s_1_51 1.0188320691231638e+00
z_1_51 1
x_1_52 3.1089080218574964e+02
s_1_52 0
z_1_52 0
x_1_53 3.1039027943927795e+02
s_1_53 0
z_1_53 0
x_1_54 3.1090925373835489e+02
s_1_54 0
z_1_54 0
x_1_55 0
s_1_55 1.1697360584512353e+00
z_1_55 1
x_1_56 3.0662639981275424e+02
s_1_56 0
z_1_56 0
x_1_57 3.1099857617821544e+02
s_1_57 0
z_1_57 0
x_1_58 0
s_1_58 1.2458696741814492e+00
z_1_58 1
x_1_59 0
s_1_59 8.4239728667307645e-01
z_1_59 1
x_1_60 3.0589067331608385e+02
s_1_60 0
z_1_60 0
x_1_61 3.0839089034218341e+02
s_1_61 0
z_1_61 0
x_1_62 3.1209550877660513e+02
s_1_62 0
z_1_62 0
x_1_63 3.0938365982659161e+02
s_1_63 0
z_1_63 0
x_1_64 0
s_1_64 9.7902087285183370e-01
z_1_64 1
x_1_65 0
s_1_65 9.1127717233030125e-01
z_1_65 1
x_1_66 3.1151749703101814e+02
s_1_66 0
z_1_66 0
x_1_67 0
s_1_67 4.7790094508673064e-01
z_1_67 1
x_1_68 308.264353482984
s_1_68 0
z_1_68 0
x_1_69 3.1037316273804754e+02
s_1_69 0
z_1_69 0
x_1_70 3.0469357178173959e+02
s_1_70 0
z_1_70 0
x_1_71 3.1002159372903407e+02
s_1_71 0
z_1_71 0
x_1_72 3.0710849650343880e+02
s_1_72 0
z_1_72 0
x_1_73 0
s_1_73 1.2445416248083347e+00
z_1_73 1
x_1_74 3.1228114028042182e+02
s_1_74 0
z_1_74 0
x_1_75 3.0980891760438681e+02
s_1_75 0
z_1_75 0
x_1_76 3.1144441555440426e+02
s_1_76 0
z_1_76 0
x_1_77 0
s_1_77 0.756868731812574
z_1_77 1
x_1_78 3.1064164265058935e+02
s_1_78 0
z_1_78 0
x_1_79 0
s_1_79 8.3797425942611881e-01
z_1_79 1
x_1_80 3.1069088977482170e+02
s_1_80 0
z_1_80 0
x_1_81 3.1157427507103421e+02
s_1_81 0
z_1_81 0
x_1_82 311.798174793832
s_1_82 0
z_1_82 0
x_1_83 3.0925645404192619e+02
s_1_83 0
z_1_83 0
x_1_84 0
s_1_84 8.3841617914731614e-01
z_1_84 1
x_1_85 0
s_1_85 9.5213910145685077e-01
z_1_85 1
x_1_86 0
s_1_86 6.3009881015022984e-01
z_1_86 1
x_1_87 0
s_1_87 0.695079666125821
z_1_87 1
x_1_88 0
s_1_88 1.0420819087012205e+00
z_1_88 1
x_1_89 3.0820233755558729e+02
s_1_89 0
z_1_89 0
x_1_90 3.1060294367745519e+02
s_1_90 0
z_1_90 0
x_1_91 0
s_1_91 4.7935958030211623e-01
z_1_91 1
x_1_92 3.1107904763024635e+02
s_1_92 0
z_1_92 0
x_1_93 0
s_1_93 5.4334467847365886e-01
z_1_93 1
x_1_94 3.0936067001521587e+02
s_1_94 0
z_1_94 0
x_1_95 0
s_1_95 8.5410967780262581e-01
z_1_95 1
x_1_96 0
s_1_96 4.7986171135562472e-01
z_1_96 1
x_1_97 3.1034666288085282e+02
s_1_97 0
z_1_97 0
x_1_98 0
s_1_98 8.6243674339493737e-01
z_1_98 1
x_1_99 0
s_1_99 9.9829350749496371e-01
z_1_99 1
x_1_100 3.1051876898482442e+02
s_1_100 0
z_1_100 0
x_1_101 0
s_1_101 9.8462585952074733e-01
z_1_101 1
x_1_102 0
s_1_102 0.673195144510828
z_1_102 1
x_1_103 0
s_1_103 9.5528381620533764e-01
z_1_103 1
x_1_104 3.0931468637939543e+02
s_1_104 0
z_1_104 0
x_1_105 0
s_1_105 4.4064517668448389e-01
z_1_105 1
x_1_106 3.0879851215798408e+02
s_1_106 0
z_1_106 0
x_1_107 0
s_1_107 1.0655242099310271e+00
z_1_107 1
x_1_108 3.0867731910198927e+02
s_1_108 0
z_1_108 0
x_1_109 311.330092869699
s_1_109 0
z_1_109 0
x_1_110 3.1118020947463810e+02
s_1_110 0
z_1_110 0
x_1_111 3.0871851747669280e+02
s_1_111 0
z_1_111 0
x_1_112 3.0961526970844716e+02
s_1_112 0
z_1_112 0
x_1_113 3.0861523009743541e+02
s_1_113 0
z_1_113 0
x_1_114 311.745081710862
s_1_114 0
z_1_114 0
x_1_115 3.1135381394065917e+02
s_1_115 0
z_1_115 0
x_1_116 3.1065616796351969e+02
s_1_116 0
z_1_116 0
x_1_117 3.0804624213208444e+02
s_1_117 0
z_1_117 0
x_1_118 3.0980893976893276e+02
s_1_118 0
z_1_118 0
x_1_119 3.0945751525461674e+02
s_1_119 0
z_1_119 0
x_1_120 3.1065344230271876e+02
s_1_120 0
z_1_120 0
x_1_121 3.0854353902116418e+02
s_1_121 0
z_1_121 0
x_1_122 0
s_1_122 8.2641691627213731e-01
z_1_122 1
x_1_123 0
s_1_123 8.9971369563136250e-01
z_1_123 1
x_1_124 3.1092372022196651e+02
s_1_124 0
z_1_124 0
x_1_125 0
s_1_125 6.2134831305593252e-01
z_1_125 1
x_1_126 0
s_1_126 0.721440042136237
z_1_126 1
x_1_127 0
s_1_127 6.7102168302517384e-01
z_1_127 1
x_1_128 0
s_1_128 6.7169710996677168e-01
z_1_128 1
x_1_129 3.0880333076883107e+02
s_1_129 0
z_1_129 0
x_1_130 3.1199362741224468e+02
s_1_130 0
z_1_130 0
x_1_131 0
s_1_131 7.4359866915619932e-01
z_1_131 1
x_1_132 309.802993576508
s_1_132 0
z_1_132 0
x_1_133 0
s_1_133 8.1502775893659418e-01
z_1_133 1
x_1_134 3.1140007396438159e+02
s_1_134 0
z_1_134 0
x_1_135 3.0875280401110649e+02
s_1_135 0
z_1_135 0
x_1_136 3.1163903359323740e+02
s_1_136 0
z_1_136 0
x_1_137 3.0834220996871591e+02
s_1_137 0
z_1_137 0
x_1_138 0
s_1_138 1.3560614319976594e+00
z_1_138 1
x_1_139 310.293481932953
s_1_139 0
z_1_139 0
x_1_140 3.1195572142861784e+02
s_1_140 0
z_1_140 0
x_1_141 3.0923495663423091e+02
s_1_141 0
z_1_141 0
x_1_142 3.1097284508310258e+02
s_1_142 0
z_1_142 0
x_1_143 3.1052817301079631e+02
s_1_143 0
z_1_143 0
x_1_144 0
s_1_144 1.2120876018489071e+00
z_1_144 1
x_1_145 0
s_1_145 1.0272323311801301e+00
z_1_145 1
x_1_146 0
s_1_146 1.0057983402803075e+00
z_1_146 1
x_1_147 0
s_1_147 2.3289508352172561e-01
z_1_147 1
x_1_148 0
s_1_148 0.606865897832904
z_1_148 1
x_1_149 3.0910376199148595e+02
s_1_149 0
z_1_149 0
x_1_150 0
s_1_150 1.0535111531498842e+00
z_1_150 1
x_1_151 0
s_1_151 1.2180511687183753e+00
z_1_151 1
x_1_152 3.0983737942995504e+02
s_1_152 0
z_1_152 0
x_1_153 3.0848401726409793e+02
s_1_153 0
z_1_153 0
x_1_154 3.0744982761889696e+02
s_1_154 0
z_1_154 0
x_1_155 3.0904479922167957e+02
s_1_155 0
z_1_155 0
x_1_156 3.1068803836626466e+02
s_1_156 0
z_1_156 0
x_1_157 3.1083600860089064e+02
s_1_157 0
z_1_157 0
x_1_158 3.1000934312690515e+02
s_1_158 0
z_1_158 0
x_1_159 312.312345610233
s_1_159 0
z_1_159 0
x_2_0 2.5488252420476521e+05
