243/surrogate_problem/log/surrogate2_31.log

Gurobi 10.0.2 (linux64) logging started Thu Sep  7 10:02:53 2023

Set parameter LogFile to value "../surrogate_problem/log/surrogate2_31.log"
Set parameter Threads to value 30
Gurobi Optimizer version 10.0.2 build v10.0.2rc0 (linux64)

CPU model: Intel(R) Xeon(R) Platinum 8280 CPU @ 2.70GHz, instruction set [SSE2|AVX|AVX2|AVX512]
Thread count: 112 physical cores, 112 logical processors, using up to 30 threads

Optimize a model with 541 rows, 1417 columns and 151817 nonzeros
Model fingerprint: 0x65bd6bdd
Variable types: 321 continuous, 1096 integer (1096 binary)
Coefficient statistics:
  Matrix range     [8e-07, 1e+05]
  Objective range  [1e-01, 1e+01]
  Bounds range     [1e+00, 1e+00]
  RHS range        [3e-02, 1e+05]
Found heuristic solution: objective 315935.29864
Presolve removed 316 rows and 316 columns
Presolve time: 0.08s
Presolved: 225 rows, 1101 columns, 50215 nonzeros
Variable types: 110 continuous, 991 integer (991 binary)

Root relaxation: objective 2.551562e+05, 122 iterations, 0.00 seconds (0.00 work units)

    Nodes    |    Current Node    |     Objective Bounds      |     Work
 Expl Unexpl |  Obj  Depth IntInf | Incumbent    BestBd   Gap | It/Node Time

     0     0 255156.224    0    7 315935.299 255156.224  19.2%     -    0s
H    0     0                    255156.24520 255156.224  0.00%     -    0s
     0     0 255156.224    0    7 255156.245 255156.224  0.00%     -    0s

Explored 1 nodes (122 simplex iterations) in 0.15 seconds (0.10 work units)
Thread count was 30 (of 112 available processors)

Solution count 2: 255156 315935 

Optimal solution found (tolerance 1.00e-04)
Best objective 2.551562452048e+05, best bound 2.551562452048e+05, gap 0.0000%

Gurobi 10.0.2 (linux64) logging started Fri Sep  8 15:19:53 2023

Set parameter LogFile to value "../surrogate_problem/log/surrogate2_31.log"
Gurobi Optimizer version 10.0.2 build v10.0.2rc0 (linux64)

CPU model: Intel(R) Xeon(R) Platinum 8280 CPU @ 2.70GHz, instruction set [SSE2|AVX|AVX2|AVX512]
Thread count: 112 physical cores, 112 logical processors, using up to 30 threads

Optimize a model with 541 rows, 1417 columns and 151817 nonzeros
Model fingerprint: 0x65bd6bdd
Variable types: 321 continuous, 1096 integer (1096 binary)
Coefficient statistics:
  Matrix range     [8e-07, 1e+05]
  Objective range  [1e-01, 1e+01]
  Bounds range     [1e+00, 1e+00]
  RHS range        [3e-02, 1e+05]
Found heuristic solution: objective 315935.29864
Presolve removed 316 rows and 316 columns
Presolve time: 0.09s
Presolved: 225 rows, 1101 columns, 50215 nonzeros
Variable types: 110 continuous, 991 integer (991 binary)

Root relaxation: objective 2.551562e+05, 122 iterations, 0.00 seconds (0.00 work units)

    Nodes    |    Current Node    |     Objective Bounds      |     Work
 Expl Unexpl |  Obj  Depth IntInf | Incumbent    BestBd   Gap | It/Node Time

     0     0 255156.224    0    7 315935.299 255156.224  19.2%     -    0s
H    0     0                    255156.24520 255156.224  0.00%     -    0s
     0     0 255156.224    0    7 255156.245 255156.224  0.00%     -    0s

Explored 1 nodes (122 simplex iterations) in 0.17 seconds (0.10 work units)
Thread count was 30 (of 112 available processors)

Solution count 2: 255156 315935 

Optimal solution found (tolerance 1.00e-04)
Best objective 2.551562452048e+05, best bound 2.551562452048e+05, gap 0.0000%
